100
128
2
32
7
37
59
36
50
23
9
7
39
35
30
16
19
21
23
32
47
3
29
9
46
43
40
11
42
43
47
22
59
62
46
45
45
41
48
23
29
64
63
38
47
51
32
29
36
31
2
58
8
27
34
8
59
42
19
9
25
62
1
10
55
31
25
64
64
20
19
32
19
2
35
39
39
58
62
62
31
29
36
62
64
19
47
44
52
40
45
37
36
62
2
62
39
49
58
10
60
40